(declare-fun C1 () Real)
(declare-fun C2 () Real)
(declare-fun C3 () Real)
(declare-fun C4 () Real)
(declare-fun C5 () Real)
(declare-fun C6 () Real)
(declare-fun C7 () Real)
(declare-fun C8 () Real)
(declare-fun C9 () Real)
(declare-fun C10 () Real)
(declare-fun y () Real)
(assert ( and ( or  (<=  (+  (* 3 C1)  (* 2 C2)  (* 2 C3)  (* 2 C4)  (* 1 C5)  (* 1 C6)  (* 1 C7)  (* 1 C8)  (* 1 C9)  (* 1 C10) ) 1800 )  (<=  (+  (* 4 C1)  (* 2 C2)  (* 2 C3)  (* 2 C4)  (* 1 C5)  (* 1 C6)  (* 1 C7)  (* 1 C8)  (* 1 C9)  (* 1 C10) ) 1930 )  (<=  (+  (* 4 C1)  (* 3 C2)  (* 2 C3)  (* 2 C4)  (* 2 C5)  (* 2 C6)  (* 2 C7)  (* 1 C8)  (* 1 C9)  (* 1 C10) ) 2400 )  (<=  (+  (* 5 C1)  (* 3 C2)  (* 2 C3)  (* 2 C4)  (* 2 C5)  (* 2 C6)  (* 2 C7)  (* 1 C8)  (* 1 C9)  (* 1 C10) ) 2654 )  (<=  (+  (* 5 C1)  (* 3 C2)  (* 3 C3)  (* 2 C4)  (* 2 C5)  (* 2 C6)  (* 2 C7)  (* 1 C8)  (* 1 C9)  (* 1 C10) ) 2895 )  (<=  (+  (* 5 C1)  (* 4 C2)  (* 3 C3)  (* 2 C4)  (* 2 C5)  (* 2 C6)  (* 2 C7)  (* 1 C8)  (* 1 C9)  (* 1 C10) ) 3000 )  (<=  (+  (* 6 C1)  (* 4 C2)  (* 3 C3)  (* 2 C4)  (* 2 C5)  (* 2 C6)  (* 2 C7)  (* 1 C8)  (* 1 C9)  (* 1 C10) ) 3180 )  (<=  (+  (* 6 C1)  (* 4 C2)  (* 3 C3)  (* 3 C4)  (* 2 C5)  (* 2 C6)  (* 2 C7)  (* 1 C8)  (* 1 C9)  (* 1 C10) ) 3600 )  (<=  (+  (* 7 C1)  (* 4 C2)  (* 3 C3)  (* 3 C4)  (* 2 C5)  (* 2 C6)  (* 2 C7)  (* 1 C8)  (* 1 C9)  (* 1 C10) ) 3860 )  (<=  (+  (* 7 C1)  (* 5 C2)  (* 3 C3)  (* 3 C4)  (* 2 C5)  (* 2 C6)  (* 2 C7)  (* 1 C8)  (* 1 C9)  (* 1 C10) ) 3981 )  (<=  (+  (* 7 C1)  (* 5 C2)  (* 4 C3)  (* 3 C4)  (* 2 C5)  (* 2 C6)  (* 2 C7)  (* 1 C8)  (* 1 C9)  (* 1 C10) ) 4146 )  (<=  (+  (* 7 C1)  (* 5 C2)  (* 4 C3)  (* 3 C4)  (* 3 C5)  (* 2 C6)  (* 2 C7)  (* 1 C8)  (* 1 C9)  (* 1 C10) ) 4200 )  (<=  (+  (* 8 C1)  (* 5 C2)  (* 4 C3)  (* 3 C4)  (* 3 C5)  (* 2 C6)  (* 2 C7)  (* 1 C8)  (* 1 C9)  (* 1 C10) ) 4358 )  (<=  (+  (* 8 C1)  (* 5 C2)  (* 4 C3)  (* 3 C4)  (* 3 C5)  (* 3 C6)  (* 2 C7)  (* 1 C8)  (* 1 C9)  (* 1 C10) ) 4444 )  (<=  (+  (* 8 C1)  (* 5 C2)  (* 4 C3)  (* 3 C4)  (* 3 C5)  (* 3 C6)  (* 3 C7)  (* 1 C8)  (* 1 C9)  (* 1 C10) ) 4530 )  (<=  (+  (* 8 C1)  (* 5 C2)  (* 4 C3)  (* 3 C4)  (* 3 C5)  (* 3 C6)  (* 3 C7)  (* 2 C8)  (* 1 C9)  (* 1 C10) ) 4621 )  (<=  (+  (* 8 C1)  (* 5 C2)  (* 4 C3)  (* 3 C4)  (* 3 C5)  (* 3 C6)  (* 3 C7)  (* 2 C8)  (* 2 C9)  (* 1 C10) ) 4770 )  (<=  (+  (* 8 C1)  (* 5 C2)  (* 4 C3)  (* 4 C4)  (* 3 C5)  (* 3 C6)  (* 3 C7)  (* 2 C8)  (* 2 C9)  (* 1 C10) ) 4800 )  (<=  (+  (* 9 C1)  (* 5 C2)  (* 4 C3)  (* 4 C4)  (* 3 C5)  (* 3 C6)  (* 3 C7)  (* 2 C8)  (* 2 C9)  (* 1 C10) ) 4825 )  (<=  (+  (* 9 C1)  (* 6 C2)  (* 4 C3)  (* 4 C4)  (* 3 C5)  (* 3 C6)  (* 3 C7)  (* 2 C8)  (* 2 C9)  (* 1 C10) ) 4900 ) ) ( or  (<=  (+  (* 3 C1)  (* 2 C2)  (* 2 C3)  (* 2 C4)  (* 1 C5)  (* 1 C6)  (* 1 C7)  (* 1 C8)  (* 1 C9) ) 1800 )  (<=  (+  (* 4 C1)  (* 2 C2)  (* 2 C3)  (* 2 C4)  (* 1 C5)  (* 1 C6)  (* 1 C7)  (* 1 C8)  (* 1 C9) ) 1930 )  (<=  (+  (* 4 C1)  (* 3 C2)  (* 2 C3)  (* 2 C4)  (* 2 C5)  (* 2 C6)  (* 2 C7)  (* 1 C8)  (* 1 C9) ) 2400 )  (<=  (+  (* 5 C1)  (* 3 C2)  (* 2 C3)  (* 2 C4)  (* 2 C5)  (* 2 C6)  (* 2 C7)  (* 1 C8)  (* 1 C9) ) 2654 )  (<=  (+  (* 5 C1)  (* 3 C2)  (* 3 C3)  (* 2 C4)  (* 2 C5)  (* 2 C6)  (* 2 C7)  (* 1 C8)  (* 1 C9) ) 2895 )  (<=  (+  (* 5 C1)  (* 4 C2)  (* 3 C3)  (* 2 C4)  (* 2 C5)  (* 2 C6)  (* 2 C7)  (* 1 C8)  (* 1 C9) ) 3000 )  (<=  (+  (* 6 C1)  (* 4 C2)  (* 3 C3)  (* 2 C4)  (* 2 C5)  (* 2 C6)  (* 2 C7)  (* 1 C8)  (* 1 C9) ) 3180 )  (<=  (+  (* 6 C1)  (* 4 C2)  (* 3 C3)  (* 3 C4)  (* 2 C5)  (* 2 C6)  (* 2 C7)  (* 1 C8)  (* 1 C9) ) 3600 )  (<=  (+  (* 7 C1)  (* 4 C2)  (* 3 C3)  (* 3 C4)  (* 2 C5)  (* 2 C6)  (* 2 C7)  (* 1 C8)  (* 1 C9) ) 3860 )  (<=  (+  (* 7 C1)  (* 5 C2)  (* 3 C3)  (* 3 C4)  (* 2 C5)  (* 2 C6)  (* 2 C7)  (* 1 C8)  (* 1 C9) ) 3981 )  (<=  (+  (* 7 C1)  (* 5 C2)  (* 4 C3)  (* 3 C4)  (* 2 C5)  (* 2 C6)  (* 2 C7)  (* 1 C8)  (* 1 C9) ) 4146 )  (<=  (+  (* 7 C1)  (* 5 C2)  (* 4 C3)  (* 3 C4)  (* 3 C5)  (* 2 C6)  (* 2 C7)  (* 1 C8)  (* 1 C9) ) 4200 )  (<=  (+  (* 8 C1)  (* 5 C2)  (* 4 C3)  (* 3 C4)  (* 3 C5)  (* 2 C6)  (* 2 C7)  (* 1 C8)  (* 1 C9) ) 4358 )  (<=  (+  (* 8 C1)  (* 5 C2)  (* 4 C3)  (* 3 C4)  (* 3 C5)  (* 3 C6)  (* 2 C7)  (* 1 C8)  (* 1 C9) ) 4444 )  (<=  (+  (* 8 C1)  (* 5 C2)  (* 4 C3)  (* 3 C4)  (* 3 C5)  (* 3 C6)  (* 3 C7)  (* 1 C8)  (* 1 C9) ) 4530 )  (<=  (+  (* 8 C1)  (* 5 C2)  (* 4 C3)  (* 3 C4)  (* 3 C5)  (* 3 C6)  (* 3 C7)  (* 2 C8)  (* 1 C9) ) 4621 ) ) ( or  (<=  (+  (* 3 C1)  (* 2 C2)  (* 2 C3)  (* 2 C4)  (* 1 C5)  (* 1 C6)  (* 1 C7)  (* 1 C8) ) 1800 )  (<=  (+  (* 4 C1)  (* 2 C2)  (* 2 C3)  (* 2 C4)  (* 1 C5)  (* 1 C6)  (* 1 C7)  (* 1 C8) ) 1930 )  (<=  (+  (* 4 C1)  (* 3 C2)  (* 2 C3)  (* 2 C4)  (* 2 C5)  (* 2 C6)  (* 2 C7)  (* 1 C8) ) 2400 )  (<=  (+  (* 5 C1)  (* 3 C2)  (* 2 C3)  (* 2 C4)  (* 2 C5)  (* 2 C6)  (* 2 C7)  (* 1 C8) ) 2654 )  (<=  (+  (* 5 C1)  (* 3 C2)  (* 3 C3)  (* 2 C4)  (* 2 C5)  (* 2 C6)  (* 2 C7)  (* 1 C8) ) 2895 )  (<=  (+  (* 5 C1)  (* 4 C2)  (* 3 C3)  (* 2 C4)  (* 2 C5)  (* 2 C6)  (* 2 C7)  (* 1 C8) ) 3000 )  (<=  (+  (* 6 C1)  (* 4 C2)  (* 3 C3)  (* 2 C4)  (* 2 C5)  (* 2 C6)  (* 2 C7)  (* 1 C8) ) 3180 )  (<=  (+  (* 6 C1)  (* 4 C2)  (* 3 C3)  (* 3 C4)  (* 2 C5)  (* 2 C6)  (* 2 C7)  (* 1 C8) ) 3600 )  (<=  (+  (* 7 C1)  (* 4 C2)  (* 3 C3)  (* 3 C4)  (* 2 C5)  (* 2 C6)  (* 2 C7)  (* 1 C8) ) 3860 )  (<=  (+  (* 7 C1)  (* 5 C2)  (* 3 C3)  (* 3 C4)  (* 2 C5)  (* 2 C6)  (* 2 C7)  (* 1 C8) ) 3981 )  (<=  (+  (* 7 C1)  (* 5 C2)  (* 4 C3)  (* 3 C4)  (* 2 C5)  (* 2 C6)  (* 2 C7)  (* 1 C8) ) 4146 )  (<=  (+  (* 7 C1)  (* 5 C2)  (* 4 C3)  (* 3 C4)  (* 3 C5)  (* 2 C6)  (* 2 C7)  (* 1 C8) ) 4200 )  (<=  (+  (* 8 C1)  (* 5 C2)  (* 4 C3)  (* 3 C4)  (* 3 C5)  (* 2 C6)  (* 2 C7)  (* 1 C8) ) 4358 )  (<=  (+  (* 8 C1)  (* 5 C2)  (* 4 C3)  (* 3 C4)  (* 3 C5)  (* 3 C6)  (* 2 C7)  (* 1 C8) ) 4444 )  (<=  (+  (* 8 C1)  (* 5 C2)  (* 4 C3)  (* 3 C4)  (* 3 C5)  (* 3 C6)  (* 3 C7)  (* 1 C8) ) 4530 ) ) ( or  (<=  (+  (* 1 C1)  (* 1 C2)  (* 1 C3)  (* 1 C4)  (* 1 C5)  (* 1 C6)  (* 1 C7) ) 600 )  (<=  (+  (* 2 C1)  (* 1 C2)  (* 1 C3)  (* 1 C4)  (* 1 C5)  (* 1 C6)  (* 1 C7) ) 965 )  (<=  (+  (* 2 C1)  (* 2 C2)  (* 1 C3)  (* 1 C4)  (* 1 C5)  (* 1 C6)  (* 1 C7) ) 1200 )  (<=  (+  (* 3 C1)  (* 2 C2)  (* 1 C3)  (* 1 C4)  (* 1 C5)  (* 1 C6)  (* 1 C7) ) 1327 )  (<=  (+  (* 3 C1)  (* 2 C2)  (* 2 C3)  (* 1 C4)  (* 1 C5)  (* 1 C6)  (* 1 C7) ) 1590 )  (<=  (+  (* 3 C1)  (* 2 C2)  (* 2 C3)  (* 2 C4)  (* 1 C5)  (* 1 C6)  (* 1 C7) ) 1800 )  (<=  (+  (* 4 C1)  (* 2 C2)  (* 2 C3)  (* 2 C4)  (* 1 C5)  (* 1 C6)  (* 1 C7) ) 1930 )  (<=  (+  (* 4 C1)  (* 3 C2)  (* 2 C3)  (* 2 C4)  (* 1 C5)  (* 1 C6)  (* 1 C7) ) 2073 )  (<=  (+  (* 4 C1)  (* 3 C2)  (* 2 C3)  (* 2 C4)  (* 2 C5)  (* 1 C6)  (* 1 C7) ) 2179 )  (<=  (+  (* 4 C1)  (* 3 C2)  (* 2 C3)  (* 2 C4)  (* 2 C5)  (* 2 C6)  (* 1 C7) ) 2222 ) ) ( or  (<=  (+  (* 1 C1)  (* 1 C2)  (* 1 C3)  (* 1 C4)  (* 1 C5)  (* 1 C6) ) 600 )  (<=  (+  (* 2 C1)  (* 1 C2)  (* 1 C3)  (* 1 C4)  (* 1 C5)  (* 1 C6) ) 965 )  (<=  (+  (* 2 C1)  (* 2 C2)  (* 1 C3)  (* 1 C4)  (* 1 C5)  (* 1 C6) ) 1200 )  (<=  (+  (* 3 C1)  (* 2 C2)  (* 1 C3)  (* 1 C4)  (* 1 C5)  (* 1 C6) ) 1327 )  (<=  (+  (* 3 C1)  (* 2 C2)  (* 2 C3)  (* 1 C4)  (* 1 C5)  (* 1 C6) ) 1590 )  (<=  (+  (* 3 C1)  (* 2 C2)  (* 2 C3)  (* 2 C4)  (* 1 C5)  (* 1 C6) ) 1800 )  (<=  (+  (* 4 C1)  (* 2 C2)  (* 2 C3)  (* 2 C4)  (* 1 C5)  (* 1 C6) ) 1930 )  (<=  (+  (* 4 C1)  (* 3 C2)  (* 2 C3)  (* 2 C4)  (* 1 C5)  (* 1 C6) ) 2073 )  (<=  (+  (* 4 C1)  (* 3 C2)  (* 2 C3)  (* 2 C4)  (* 2 C5)  (* 1 C6) ) 2179 ) ) ( or  (<=  (+  (* 1 C1)  (* 1 C2)  (* 1 C3)  (* 1 C4)  (* 1 C5) ) 600 )  (<=  (+  (* 2 C1)  (* 1 C2)  (* 1 C3)  (* 1 C4)  (* 1 C5) ) 965 )  (<=  (+  (* 2 C1)  (* 2 C2)  (* 1 C3)  (* 1 C4)  (* 1 C5) ) 1200 )  (<=  (+  (* 3 C1)  (* 2 C2)  (* 1 C3)  (* 1 C4)  (* 1 C5) ) 1327 )  (<=  (+  (* 3 C1)  (* 2 C2)  (* 2 C3)  (* 1 C4)  (* 1 C5) ) 1590 )  (<=  (+  (* 3 C1)  (* 2 C2)  (* 2 C3)  (* 2 C4)  (* 1 C5) ) 1800 )  (<=  (+  (* 4 C1)  (* 2 C2)  (* 2 C3)  (* 2 C4)  (* 1 C5) ) 1930 )  (<=  (+  (* 4 C1)  (* 3 C2)  (* 2 C3)  (* 2 C4)  (* 1 C5) ) 2073 ) ) ( or  (<=  (+  (* 1 C1)  (* 1 C2)  (* 1 C3)  (* 1 C4) ) 600 )  (<=  (+  (* 2 C1)  (* 1 C2)  (* 1 C3)  (* 1 C4) ) 965 )  (<=  (+  (* 2 C1)  (* 2 C2)  (* 1 C3)  (* 1 C4) ) 1200 )  (<=  (+  (* 3 C1)  (* 2 C2)  (* 1 C3)  (* 1 C4) ) 1327 )  (<=  (+  (* 3 C1)  (* 2 C2)  (* 2 C3)  (* 1 C4) ) 1590 ) ) ( or  (<=  (+  (* 1 C1)  (* 1 C2)  (* 1 C3) ) 600 )  (<=  (+  (* 2 C1)  (* 1 C2)  (* 1 C3) ) 965 )  (<=  (+  (* 2 C1)  (* 2 C2)  (* 1 C3) ) 1200 )  (<=  (+  (* 3 C1)  (* 2 C2)  (* 1 C3) ) 1327 ) ) ( or  (<=  (+  (* 1 C1)  (* 1 C2) ) 600 )  (<=  (+  (* 2 C1)  (* 1 C2) ) 965 ) ) ( or  (<=  (* 1 C1)  600 ) )  (and (>= C1 6) (>= C2 9) (>= C3 13) (>= C4 15) (>= C5 20) (>= C6 21) (>= C7 22) (>= C8 45) (>= C9 46) (>= C10 49) )  (and (<= C1 311) (<= C2 500) (<= C3 688) (<= C4 825) (<= C5 1075) (<= C6 1130) (<= C7 1153) (<= C8 2350) (<= C9 2398) (<= C10 2542) ) (= y (+ (/ C1 600) (/ C2 965) (/ C3 1327) (/ C4 1590) (/ C5 2073) (/ C6 2179) (/ C7 2222) (/ C8 4530) (/ C9 4621) (/ C10 4900) )) ))
(maximize y)
(check-sat)
